(set-option :produce-models true); benchmark generated from python API
(set-info :status unknown)
(declare-fun l_1_0_33 () Real)
(declare-fun l_1_0_32 () Real)
(declare-fun l_1_0_21 () Real)
(declare-fun l_1_0_15 () Real)
(declare-fun l_1_0_12 () Real)
(declare-fun _a_0_ () Real)
(declare-fun l_1_0_8 () Real)
(declare-fun l_1_0_36 () Real)
(declare-fun l_1_0_31 () Real)
(declare-fun l_1_0_30 () Real)
(declare-fun l_1_0_25 () Real)
(declare-fun l_1_0_16 () Real)
(declare-fun l_1_0_1 () Real)
(declare-fun _a_1_ () Real)
(declare-fun l_1_0_5 () Real)
(declare-fun l_1_0_4 () Real)
(declare-fun l_1_0_38 () Real)
(declare-fun l_1_0_37 () Real)
(declare-fun l_1_0_3 () Real)
(declare-fun l_1_0_17 () Real)
(declare-fun _a_2_ () Real)
(declare-fun l_1_0_35 () Real)
(declare-fun l_1_0_34 () Real)
(declare-fun l_1_0_29 () Real)
(declare-fun l_1_0_28 () Real)
(declare-fun l_1_0_27 () Real)
(declare-fun l_1_0_24 () Real)
(declare-fun l_1_0_23 () Real)
(declare-fun l_1_0_2 () Real)
(declare-fun l_1_0_13 () Real)
(declare-fun l_1_0_10 () Real)
(declare-fun _a_3_ () Real)
(declare-fun l_1_0_9 () Real)
(declare-fun l_1_0_7 () Real)
(declare-fun l_1_0_26 () Real)
(declare-fun l_1_0_18 () Real)
(declare-fun _a_4_ () Real)
(declare-fun l_1_0_6 () Real)
(declare-fun l_1_0_22 () Real)
(declare-fun l_1_0_20 () Real)
(declare-fun l_1_0_19 () Real)
(declare-fun l_1_0_14 () Real)
(declare-fun l_1_0_11 () Real)
(declare-fun _a_5_ () Real)
(declare-fun l_1_1_4 () Real)
(declare-fun l_1_1_33 () Real)
(declare-fun l_1_1_32 () Real)
(declare-fun l_1_1_31 () Real)
(declare-fun l_1_1_30 () Real)
(declare-fun l_1_1_26 () Real)
(declare-fun l_1_1_15 () Real)
(declare-fun l_1_1_14 () Real)
(declare-fun l_1_1_12 () Real)
(declare-fun l_1_1_1 () Real)
(declare-fun l_1_1_8 () Real)
(declare-fun l_1_1_5 () Real)
(declare-fun l_1_1_2 () Real)
(declare-fun l_1_1_18 () Real)
(declare-fun l_1_1_11 () Real)
(declare-fun l_1_1_7 () Real)
(declare-fun l_1_1_6 () Real)
(declare-fun l_1_1_38 () Real)
(declare-fun l_1_1_37 () Real)
(declare-fun l_1_1_36 () Real)
(declare-fun l_1_1_29 () Real)
(declare-fun l_1_1_24 () Real)
(declare-fun l_1_1_21 () Real)
(declare-fun l_1_1_20 () Real)
(declare-fun l_1_1_17 () Real)
(declare-fun l_1_1_13 () Real)
(declare-fun l_1_1_9 () Real)
(declare-fun l_1_1_34 () Real)
(declare-fun l_1_1_28 () Real)
(declare-fun l_1_1_23 () Real)
(declare-fun l_1_1_19 () Real)
(declare-fun l_1_1_10 () Real)
(declare-fun l_1_1_22 () Real)
(declare-fun l_1_1_16 () Real)
(declare-fun l_1_1_35 () Real)
(declare-fun l_1_1_3 () Real)
(declare-fun l_1_1_27 () Real)
(declare-fun l_1_1_25 () Real)
(declare-fun l_1_2_7 () Real)
(declare-fun l_1_2_5 () Real)
(declare-fun l_1_2_45 () Real)
(declare-fun l_1_2_44 () Real)
(declare-fun l_1_2_43 () Real)
(declare-fun l_1_2_40 () Real)
(declare-fun l_1_2_4 () Real)
(declare-fun l_1_2_38 () Real)
(declare-fun l_1_2_31 () Real)
(declare-fun l_1_2_24 () Real)
(declare-fun l_1_2_22 () Real)
(declare-fun l_1_2_21 () Real)
(declare-fun l_1_2_19 () Real)
(declare-fun l_1_2_18 () Real)
(declare-fun l_1_2_10 () Real)
(declare-fun l_1_2_1 () Real)
(declare-fun l_1_2_8 () Real)
(declare-fun l_1_2_6 () Real)
(declare-fun l_1_2_36 () Real)
(declare-fun l_1_2_3 () Real)
(declare-fun l_1_2_28 () Real)
(declare-fun l_1_2_15 () Real)
(declare-fun l_1_2_12 () Real)
(declare-fun l_1_2_46 () Real)
(declare-fun l_1_2_35 () Real)
(declare-fun l_1_2_30 () Real)
(declare-fun l_1_2_29 () Real)
(declare-fun l_1_2_23 () Real)
(declare-fun l_1_2_16 () Real)
(declare-fun l_1_2_14 () Real)
(declare-fun l_1_2_11 () Real)
(declare-fun l_1_2_42 () Real)
(declare-fun l_1_2_20 () Real)
(declare-fun l_1_2_50 () Real)
(declare-fun l_1_2_49 () Real)
(declare-fun l_1_2_48 () Real)
(declare-fun l_1_2_39 () Real)
(declare-fun l_1_2_37 () Real)
(declare-fun l_1_2_34 () Real)
(declare-fun l_1_2_33 () Real)
(declare-fun l_1_2_32 () Real)
(declare-fun l_1_2_27 () Real)
(declare-fun l_1_2_26 () Real)
(declare-fun l_1_2_25 () Real)
(declare-fun l_1_2_2 () Real)
(declare-fun l_1_2_17 () Real)
(declare-fun l_1_2_9 () Real)
(declare-fun l_1_2_47 () Real)
(declare-fun l_1_2_13 () Real)
(declare-fun l_1_2_41 () Real)
(declare-fun l_1_3_4 () Real)
(declare-fun l_1_3_33 () Real)
(declare-fun l_1_3_32 () Real)
(declare-fun l_1_3_31 () Real)
(declare-fun l_1_3_24 () Real)
(declare-fun l_1_3_22 () Real)
(declare-fun l_1_3_21 () Real)
(declare-fun l_1_3_2 () Real)
(declare-fun l_1_3_19 () Real)
(declare-fun l_1_3_16 () Real)
(declare-fun l_1_3_9 () Real)
(declare-fun l_1_3_3 () Real)
(declare-fun l_1_3_25 () Real)
(declare-fun l_1_3_20 () Real)
(declare-fun l_1_3_17 () Real)
(declare-fun l_1_3_8 () Real)
(declare-fun l_1_3_7 () Real)
(declare-fun l_1_3_36 () Real)
(declare-fun l_1_3_15 () Real)
(declare-fun l_1_3_12 () Real)
(declare-fun l_1_3_1 () Real)
(declare-fun l_1_3_23 () Real)
(declare-fun l_1_3_14 () Real)
(declare-fun l_1_3_38 () Real)
(declare-fun l_1_3_37 () Real)
(declare-fun l_1_3_28 () Real)
(declare-fun l_1_3_6 () Real)
(declare-fun l_1_3_5 () Real)
(declare-fun l_1_3_35 () Real)
(declare-fun l_1_3_34 () Real)
(declare-fun l_1_3_30 () Real)
(declare-fun l_1_3_10 () Real)
(declare-fun l_1_3_29 () Real)
(declare-fun l_1_3_26 () Real)
(declare-fun l_1_3_27 () Real)
(declare-fun l_1_3_18 () Real)
(declare-fun l_1_3_13 () Real)
(declare-fun l_1_3_11 () Real)
(assert
 (let ((?x131 (* l_1_0_33 l_1_0_33)))
 (let ((?x2958 (- (- (- (- (- _a_0_ l_1_0_12) l_1_0_15) l_1_0_21) l_1_0_32) ?x131)))
 (= ?x2958 0.0))))
(assert
 (let ((?x2894 (+ (- (- (- (+ _a_1_ l_1_0_1) l_1_0_16) l_1_0_25) l_1_0_30) l_1_0_31)))
 (= (+ (- ?x2894 (* (* 2.0 l_1_0_33) l_1_0_36)) l_1_0_8) 0.0)))
(assert
 (let ((?x2865 (* l_1_0_38 l_1_0_38)))
 (let ((?x129 (* l_1_0_37 l_1_0_37)))
 (let ((?x2864 (- (- (- (+ _a_2_ l_1_0_17) l_1_0_3) (* l_1_0_36 l_1_0_36)) ?x129)))
 (= (+ (- (- ?x2864 ?x2865) l_1_0_4) l_1_0_5) 0.0)))))
(assert
 (let ((?x2816 (+ (+ (+ (- (- _a_3_ l_1_0_10) l_1_0_13) l_1_0_2) l_1_0_23) l_1_0_24)))
 (let ((?x2762 (- (- (+ (- ?x2816 l_1_0_27) l_1_0_28) l_1_0_29) (* (* 2.0 l_1_0_34) l_1_0_36))))
 (= (- ?x2762 (* (* 2.0 l_1_0_35) l_1_0_37)) 0.0))))
(assert
 (let ((?x2719 (* l_1_0_35 l_1_0_35)))
 (let ((?x2720 (- (- (+ (- _a_4_ l_1_0_18) l_1_0_26) (* l_1_0_34 l_1_0_34)) ?x2719)))
 (= (- (+ ?x2720 l_1_0_7) l_1_0_9) 0.0))))
(assert
 (let ((?x500 (+ (+ (- (- (- _a_5_ l_1_0_11) l_1_0_14) l_1_0_19) l_1_0_20) l_1_0_22)))
 (= (+ (- ?x500 (* (* 2.0 l_1_0_33) l_1_0_34)) l_1_0_6) 0.0)))
(assert
 (>= l_1_0_1 0.0))
(assert
 (>= l_1_0_2 0.0))
(assert
 (>= l_1_0_3 0.0))
(assert
 (>= l_1_0_4 0.0))
(assert
 (>= l_1_0_5 0.0))
(assert
 (>= l_1_0_6 0.0))
(assert
 (>= l_1_0_7 0.0))
(assert
 (>= l_1_0_8 0.0))
(assert
 (>= l_1_0_9 0.0))
(assert
 (>= l_1_0_10 0.0))
(assert
 (>= l_1_0_11 0.0))
(assert
 (>= l_1_0_12 0.0))
(assert
 (>= l_1_0_13 0.0))
(assert
 (>= l_1_0_14 0.0))
(assert
 (>= l_1_0_15 0.0))
(assert
 (>= l_1_0_16 0.0))
(assert
 (>= l_1_0_17 0.0))
(assert
 (>= l_1_0_18 0.0))
(assert
 (>= l_1_0_19 0.0))
(assert
 (>= l_1_0_20 0.0))
(assert
 (>= l_1_0_21 0.0))
(assert
 (>= l_1_0_22 0.0))
(assert
 (>= l_1_0_23 0.0))
(assert
 (>= l_1_0_24 0.0))
(assert
 (>= l_1_0_25 0.0))
(assert
 (>= l_1_0_26 0.0))
(assert
 (>= l_1_0_27 0.0))
(assert
 (>= l_1_0_28 0.0))
(assert
 (>= l_1_0_29 0.0))
(assert
 (>= l_1_0_30 0.0))
(assert
 (>= l_1_0_31 0.0))
(assert
 (>= l_1_0_32 0.0))
(assert
 (>= l_1_0_33 0.0))
(assert
 (>= l_1_0_35 0.0))
(assert
 (>= l_1_0_38 0.0))
(assert
 (let ((?x2411 (* l_1_1_33 l_1_1_33)))
 (let ((?x2408 (* 5.0 l_1_1_31)))
 (let ((?x2404 (* 25.0 l_1_1_26)))
 (let ((?x558 (* 5.0 l_1_1_15)))
 (let ((?x2470 (* 5.0 l_1_1_14)))
 (let ((?x2466 (* _a_0_ l_1_1_8)))
 (let ((?x2464 (* _a_0_ l_1_1_5)))
 (let ((?x2463 (+ (+ (* (- _a_0_) l_1_1_11) (* (* 5.0 _a_0_) l_1_1_18)) (* (* 5.0 _a_0_) l_1_1_2))))
 (let ((?x2155 (+ (+ (- (- (- (- ?x2463 ?x2464) ?x2466) l_1_1_1) l_1_1_12) ?x2470) ?x558)))
 (let ((?x2410 (- (+ (- (- ?x2155 ?x2404) (* (* l_1_1_30 _a_0_) _a_0_)) ?x2408) l_1_1_32)))
 (= (- (- ?x2410 ?x2411) l_1_1_4) 0.0))))))))))))
(assert
 (let ((?x2160 (* 100.0 l_1_1_6)))
 (let ((?x2157 (* l_1_1_38 l_1_1_38)))
 (let ((?x2244 (* l_1_1_37 l_1_1_37)))
 (let ((?x2242 (* l_1_1_36 l_1_1_36)))
 (let ((?x2231 (* 15.0 l_1_1_24)))
 (let ((?x2229 (* 15.0 l_1_1_21)))
 (let ((?x2217 (* _a_2_ l_1_1_8)))
 (let ((?x2219 (- (- (- (* (- _a_2_) l_1_1_11) (* _a_2_ l_1_1_5)) ?x2217) l_1_1_13)))
 (let ((?x2224 (- (- ?x2219 (* l_1_1_17 (- _a_0_ (* 10.0 _a_1_)))) (* l_1_1_18 (- _a_1_ (* 5.0 _a_2_))))))
 (let ((?x2230 (+ (- (- ?x2224 (* l_1_1_2 (- _a_1_ (* 5.0 _a_2_)))) l_1_1_20) ?x2229)))
 (let ((?x2236 (- (- (+ ?x2230 ?x2231) l_1_1_26) (* l_1_1_29 (- _a_0_ (* 10.0 _a_1_))))))
 (let ((?x2241 (- ?x2236 (* l_1_1_30 (+ (* (* 2.0 _a_0_) _a_2_) (* _a_1_ _a_1_))))))
 (= (- (- (- (- (- (- ?x2241 ?x2242) ?x2244) ?x2157) ?x2160) l_1_1_7) (/ 5.0 2.0)) 0.0))))))))))))))
(assert
 (let ((?x1650 (* 10.0 l_1_1_7)))
 (let ((?x1839 (* 10.0 l_1_1_26)))
 (let ((?x1836 (* 50.0 l_1_1_24)))
 (let ((?x1833 (* 50.0 l_1_1_21)))
 (let ((?x1747 (* 10.0 l_1_1_20)))
 (let ((?x1818 (* 10.0 l_1_1_13)))
 (let ((?x1816 (* _a_1_ l_1_1_8)))
 (let ((?x1884 (* _a_1_ l_1_1_5)))
 (let ((?x1883 (* _a_1_ l_1_1_11)))
 (let ((?x1756 (+ (* (* (* (- 2.0) _a_0_) _a_1_) l_1_1_30) (* (* 10.0 _a_0_) l_1_1_17))))
 (let ((?x1735 (- (- (- (+ ?x1756 (* (* 10.0 _a_0_) l_1_1_29)) ?x1883) ?x1884) ?x1816)))
 (let ((?x1828 (- (- (- (+ ?x1735 ?x1818) l_1_1_14) l_1_1_15) (* l_1_1_18 (- _a_0_ (* 5.0 _a_1_))))))
 (let ((?x1834 (- (+ (- ?x1828 (* l_1_1_2 (- _a_0_ (* 5.0 _a_1_)))) ?x1747) ?x1833)))
 (let ((?x1737 (- (- (+ (- ?x1834 ?x1836) ?x1839) l_1_1_31) (* (* 2.0 l_1_1_33) l_1_1_36))))
 (= (- (+ ?x1737 ?x1650) 4.0) 0.0))))))))))))))))
(assert
 (let ((?x1496 (* 10.0 l_1_1_28)))
 (let ((?x1493 (* 10.0 l_1_1_23)))
 (let ((?x1491 (* 50.0 l_1_1_19)))
 (let ((?x1489 (* 50.0 l_1_1_10)))
 (let ((?x1487 (* _a_5_ l_1_1_8)))
 (let ((?x1294 (* _a_5_ l_1_1_5)))
 (let ((?x1477 (* _a_5_ l_1_1_11)))
 (let ((?x1576 (+ (* (* (* (- 2.0) _a_0_) _a_5_) l_1_1_30) (* (* 10.0 _a_0_) l_1_1_16))))
 (let ((?x1482 (+ (- (+ ?x1576 (* (* 10.0 _a_0_) l_1_1_22)) ?x1477) (* (* 5.0 _a_5_) l_1_1_18))))
 (let ((?x1490 (- (- (- (+ ?x1482 (* (* 5.0 _a_5_) l_1_1_2)) ?x1294) ?x1487) ?x1489)))
 (let ((?x1500 (- (+ (+ (- ?x1490 ?x1491) ?x1493) ?x1496) (* (* 2.0 l_1_1_33) l_1_1_34))))
 (= (+ (+ ?x1500 (* 10.0 l_1_1_9)) 1.0) 0.0)))))))))))))
(assert
 (let ((?x1304 (* 20.0 l_1_1_6)))
 (let ((?x73 (* _a_2_ l_1_1_2)))
 (let ((?x2113 (* _a_2_ l_1_1_18)))
 (let ((?x1296 (- (- (- (* (* (* (- 2.0) _a_1_) _a_2_) l_1_1_30) ?x2113) ?x73) (* l_1_1_17 (- _a_1_ (* 10.0 _a_2_))))))
 (let ((?x1302 (- (- (- ?x1296 l_1_1_21) l_1_1_24) (* l_1_1_29 (- _a_1_ (* 10.0 _a_2_))))))
 (= (+ ?x1302 ?x1304) 0.0)))))))
(assert
 (let ((?x1159 (+ (* (* 2.0 _a_0_) _a_3_) (* (* 2.0 _a_1_) _a_5_))))
 (let ((?x1155 (* 100.0 l_1_1_3)))
 (let ((?x1154 (* 100.0 l_1_1_27)))
 (let ((?x699 (* 10.0 l_1_1_19)))
 (let ((?x1151 (* 10.0 l_1_1_10)))
 (let ((?x1201 (* _a_3_ l_1_1_8)))
 (let ((?x1200 (* _a_3_ l_1_1_5)))
 (let ((?x1198 (* _a_3_ l_1_1_11)))
 (let ((?x1197 (+ (* (* 10.0 _a_1_) l_1_1_16) (* (* 10.0 _a_1_) l_1_1_22))))
 (let ((?x1207 (+ (- (- (- ?x1197 ?x1198) ?x1200) ?x1201) (* (* 10.0 _a_5_) l_1_1_17))))
 (let ((?x45 (- (+ (+ ?x1207 (* (* 10.0 _a_5_) l_1_1_29)) ?x1151) (* l_1_1_18 (+ (* (- 5.0) _a_3_) _a_5_)))))
 (let ((?x62 (- (- (+ ?x45 ?x699) (* l_1_1_2 (+ (* (- 5.0) _a_3_) _a_5_))) ?x1154)))
 (let ((?x478 (- (- (- ?x62 ?x1155) (* l_1_1_30 ?x1159)) (* (* 2.0 l_1_1_34) l_1_1_36))))
 (= (- ?x478 (* (* 2.0 l_1_1_35) l_1_1_37)) 0.0)))))))))))))))
(assert
 (let ((?x705 (+ (* (* 2.0 _a_1_) _a_3_) (* (* 2.0 _a_2_) _a_5_))))
 (let ((?x701 (* 10.0 l_1_1_3)))
 (let ((?x814 (* 10.0 l_1_1_27)))
 (let ((?x51 (* _a_3_ l_1_1_2)))
 (let ((?x1024 (* _a_3_ l_1_1_18)))
 (let ((?x808 (+ (* (* 10.0 _a_2_) l_1_1_16) (* (* 10.0 _a_2_) l_1_1_22))))
 (let ((?x656 (- (- (- ?x808 ?x1024) ?x51) (* l_1_1_17 (+ (* (- 10.0) _a_3_) _a_5_)))))
 (let ((?x482 (+ (- (+ ?x656 ?x814) (* l_1_1_29 (+ (* (- 10.0) _a_3_) _a_5_))) ?x701)))
 (= (- ?x482 (* l_1_1_30 ?x705)) 0.0))))))))))
(assert
 (let ((?x464 (* l_1_1_35 l_1_1_35)))
 (let ((?x462 (* l_1_1_34 l_1_1_34)))
 (let ((?x511 (* 100.0 l_1_1_25)))
 (let ((?x506 (* 5.0 l_1_1_19)))
 (let ((?x498 (* 5.0 l_1_1_10)))
 (let ((?x495 (* _a_4_ l_1_1_8)))
 (let ((?x492 (* _a_4_ l_1_1_5)))
 (let ((?x490 (+ (+ (* (- _a_4_) l_1_1_11) (* (* 5.0 _a_4_) l_1_1_18)) (* (* 5.0 _a_4_) l_1_1_2))))
 (let ((?x505 (- (+ (- (- ?x490 ?x492) ?x495) ?x498) (* l_1_1_16 (- _a_0_ (* 10.0 _a_5_))))))
 (let ((?x510 (- (- (+ ?x505 ?x506) (* l_1_1_22 (- _a_0_ (* 10.0 _a_5_)))) l_1_1_23)))
 (let ((?x459 (- (- (- ?x510 ?x511) l_1_1_28) (* l_1_1_30 (+ (* (* 2.0 _a_0_) _a_4_) (* _a_5_ _a_5_))))))
 (= (- (- (- ?x459 ?x462) ?x464) l_1_1_9) 0.0)))))))))))))
(assert
 (let ((?x292 (+ (* (* 2.0 _a_1_) _a_4_) (* (* 2.0 _a_3_) _a_5_))))
 (let ((?x701 (* 10.0 l_1_1_3)))
 (let ((?x814 (* 10.0 l_1_1_27)))
 (let ((?x31 (* _a_4_ l_1_1_2)))
 (let ((?x317 (+ (- (- (* (* 10.0 _a_4_) l_1_1_17) (* _a_4_ l_1_1_18)) ?x31) (* (* 10.0 _a_4_) l_1_1_29))))
 (let ((?x323 (- (- (- ?x317 l_1_1_10) (* l_1_1_16 (- _a_1_ (* 10.0 _a_3_)))) l_1_1_19)))
 (let ((?x290 (+ (+ (- ?x323 (* l_1_1_22 (- _a_1_ (* 10.0 _a_3_)))) ?x814) ?x701)))
 (= (- ?x290 (* l_1_1_30 ?x292)) 0.0)))))))))
(assert
 (let ((?x270 (* _a_4_ l_1_1_29)))
 (let ((?x263 (* _a_4_ l_1_1_17)))
 (let ((?x1319 (- (- (- (* (- _a_2_) l_1_1_16) (* _a_2_ l_1_1_22)) ?x263) ?x270)))
 (let ((?x197 (- (- (- ?x1319 l_1_1_27) l_1_1_3) (* l_1_1_30 (+ (* (* 2.0 _a_2_) _a_4_) (* _a_3_ _a_3_))))))
 (= ?x197 0.0))))))
(assert
 (let ((?x1384 (- (- (* (- _a_2_) l_1_1_17) (* _a_2_ l_1_1_29)) (* (* l_1_1_30 _a_2_) _a_2_))))
 (= (- ?x1384 l_1_1_6) 0.0)))
(assert
 (let ((?x163 (* _a_3_ l_1_1_22)))
 (let ((?x39 (* _a_3_ l_1_1_16)))
 (= (- (- (* (* (* (- 2.0) _a_3_) _a_4_) l_1_1_30) ?x39) ?x163) 0.0))))
(assert
 (let ((?x516 (- (* (* (* (- 2.0) _a_4_) _a_5_) l_1_1_30) (* l_1_1_16 (+ (* (- 10.0) _a_4_) _a_5_)))))
 (let ((?x520 (+ (- ?x516 (* l_1_1_22 (+ (* (- 10.0) _a_4_) _a_5_))) (* 20.0 l_1_1_25))))
 (= ?x520 0.0))))
(assert
 (let ((?x1386 (- (- (- (* (- _a_4_) l_1_1_16) (* _a_4_ l_1_1_22)) l_1_1_25) (* (* l_1_1_30 _a_4_) _a_4_))))
 (= ?x1386 0.0)))
(assert
 (let ((?x650 (* _a_3_ l_1_1_29)))
 (let ((?x719 (* _a_3_ l_1_1_17)))
 (= (- (- (* (* (* (- 2.0) _a_2_) _a_3_) l_1_1_30) ?x719) ?x650) 0.0))))
(assert
 (>= l_1_1_1 0.0))
(assert
 (>= l_1_1_2 0.0))
(assert
 (>= l_1_1_3 0.0))
(assert
 (>= l_1_1_4 0.0))
(assert
 (>= l_1_1_5 0.0))
(assert
 (>= l_1_1_6 0.0))
(assert
 (>= l_1_1_7 0.0))
(assert
 (>= l_1_1_8 0.0))
(assert
 (>= l_1_1_9 0.0))
(assert
 (>= l_1_1_10 0.0))
(assert
 (>= l_1_1_11 0.0))
(assert
 (>= l_1_1_12 0.0))
(assert
 (>= l_1_1_13 0.0))
(assert
 (>= l_1_1_14 0.0))
(assert
 (>= l_1_1_15 0.0))
(assert
 (>= l_1_1_16 0.0))
(assert
 (>= l_1_1_17 0.0))
(assert
 (>= l_1_1_18 0.0))
(assert
 (>= l_1_1_19 0.0))
(assert
 (>= l_1_1_20 0.0))
(assert
 (>= l_1_1_21 0.0))
(assert
 (>= l_1_1_22 0.0))
(assert
 (>= l_1_1_23 0.0))
(assert
 (>= l_1_1_24 0.0))
(assert
 (>= l_1_1_25 0.0))
(assert
 (>= l_1_1_26 0.0))
(assert
 (>= l_1_1_27 0.0))
(assert
 (>= l_1_1_28 0.0))
(assert
 (>= l_1_1_29 0.0))
(assert
 (>= l_1_1_30 0.0))
(assert
 (>= l_1_1_31 0.0))
(assert
 (>= l_1_1_32 0.0))
(assert
 (>= l_1_1_33 0.0))
(assert
 (>= l_1_1_35 0.0))
(assert
 (>= l_1_1_38 0.0))
(assert
 (let ((?x538 (* 5.0 l_1_2_7)))
 (let ((?x532 (* 5.0 l_1_2_5)))
 (let ((?x528 (* l_1_2_45 l_1_2_45)))
 (let ((?x2394 (* 5.0 l_1_2_31)))
 (let ((?x2397 (* 25.0 l_1_2_24)))
 (let ((?x1797 (* 5.0 l_1_2_21)))
 (let ((?x1778 (* 5.0 l_1_2_1)))
 (let ((?x1772 (* _a_0_ l_1_2_8)))
 (let ((?x1766 (* _a_0_ l_1_2_36)))
 (let ((?x1076 (* _a_0_ l_1_2_3)))
 (let ((?x1079 (+ (- (* (- _a_0_) l_1_2_12) (* _a_0_ l_1_2_15)) (* (* 5.0 _a_0_) l_1_2_28))))
 (let ((?x1775 (- (+ (- (- ?x1079 ?x1076) ?x1766) (* (* 5.0 _a_0_) l_1_2_6)) ?x1772)))
 (let ((?x1791 (- (- (- (+ ?x1775 ?x1778) l_1_2_10) l_1_2_18) (* (* l_1_2_19 _a_0_) _a_0_))))
 (let ((?x541 (- (- (+ (- (- (+ ?x1791 ?x1797) l_1_2_22) ?x2397) ?x2394) l_1_2_38) l_1_2_4)))
 (let ((?x539 (+ (+ (- (- (- (- ?x541 l_1_2_40) l_1_2_43) l_1_2_44) ?x528) ?x532) ?x538)))
 (= ?x539 0.0)))))))))))))))))
(assert
 (let ((?x686 (* 10.0 l_1_2_35)))
 (let ((?x676 (* 50.0 l_1_2_30)))
 (let ((?x669 (* 50.0 l_1_2_29)))
 (let ((?x666 (* 10.0 l_1_2_23)))
 (let ((?x664 (* 10.0 l_1_2_16)))
 (let ((?x684 (* 10.0 l_1_2_14)))
 (let ((?x630 (* 10.0 l_1_2_11)))
 (let ((?x628 (* _a_5_ l_1_2_8)))
 (let ((?x623 (* _a_5_ l_1_2_36)))
 (let ((?x621 (* _a_5_ l_1_2_3)))
 (let ((?x438 (* _a_5_ l_1_2_15)))
 (let ((?x433 (* _a_5_ l_1_2_12)))
 (let ((?x1681 (+ (* (* (* (- 2.0) _a_0_) _a_5_) l_1_2_19) (* (* 10.0 _a_0_) l_1_2_20))))
 (let ((?x1582 (+ (- (- (+ ?x1681 (* (* 10.0 _a_0_) l_1_2_42)) ?x433) ?x438) (* (* 5.0 _a_5_) l_1_2_28))))
 (let ((?x629 (- (+ (- (- ?x1582 ?x621) ?x623) (* (* 5.0 _a_5_) l_1_2_6)) ?x628)))
 (let ((?x683 (+ (- (- (+ (+ (+ (+ ?x629 ?x630) ?x684) ?x664) ?x666) ?x669) ?x676) ?x686)))
 (= (- (- ?x683 (* (* 2.0 l_1_2_45) l_1_2_46)) 1.0) 0.0))))))))))))))))))
(assert
 (let ((?x2836 (* l_1_2_50 l_1_2_50)))
 (let ((?x2835 (* l_1_2_49 l_1_2_49)))
 (let ((?x2834 (* l_1_2_48 l_1_2_48)))
 (let ((?x2822 (* 15.0 l_1_2_39)))
 (let ((?x585 (* 100.0 l_1_2_26)))
 (let ((?x934 (* 15.0 l_1_2_2)))
 (let ((?x2487 (* _a_2_ l_1_2_8)))
 (let ((?x1902 (* _a_2_ l_1_2_36)))
 (let ((?x1901 (* _a_2_ l_1_2_3)))
 (let ((?x1903 (- (- (- (* (- _a_2_) l_1_2_12) (* _a_2_ l_1_2_15)) ?x1901) ?x1902)))
 (let ((?x939 (- (- (- ?x1903 ?x2487) l_1_2_17) (* l_1_2_19 (+ (* (* 2.0 _a_0_) _a_2_) (* _a_1_ _a_1_))))))
 (let ((?x584 (- (- (- (- (+ ?x939 ?x934) l_1_2_24) l_1_2_25) ?x585) (* l_1_2_27 (- _a_0_ (* 10.0 _a_1_))))))
 (let ((?x1173 (- (- ?x584 (* l_1_2_28 (- _a_1_ (* 5.0 _a_2_)))) (* l_1_2_32 (- _a_0_ (* 10.0 _a_1_))))))
 (let ((?x2830 (- (- (+ (- (- (- ?x1173 l_1_2_33) l_1_2_34) l_1_2_37) ?x2822) ?x2834) ?x2835)))
 (let ((?x2833 (+ (- (- ?x2830 ?x2836) (* l_1_2_6 (- _a_1_ (* 5.0 _a_2_)))) (/ 7.0 2.0))))
 (= ?x2833 0.0)))))))))))))))))
(assert
 (let ((?x1393 (* 50.0 l_1_2_39)))
 (let ((?x838 (* 10.0 l_1_2_37)))
 (let ((?x836 (* 10.0 l_1_2_34)))
 (let ((?x2152 (* 10.0 l_1_2_33)))
 (let ((?x1463 (* 10.0 l_1_2_25)))
 (let ((?x2702 (* 10.0 l_1_2_24)))
 (let ((?x2704 (* 50.0 l_1_2_2)))
 (let ((?x923 (* 10.0 l_1_2_17)))
 (let ((?x926 (* _a_1_ l_1_2_8)))
 (let ((?x921 (* _a_1_ l_1_2_36)))
 (let ((?x915 (* _a_1_ l_1_2_3)))
 (let ((?x911 (* _a_1_ l_1_2_15)))
 (let ((?x909 (* _a_1_ l_1_2_12)))
 (let ((?x377 (+ (* (* (* (- 2.0) _a_0_) _a_1_) l_1_2_19) (* (* 10.0 _a_0_) l_1_2_27))))
 (let ((?x918 (- (- (- (+ ?x377 (* (* 10.0 _a_0_) l_1_2_32)) ?x909) ?x911) ?x915)))
 (let ((?x2701 (- (- (+ (- (- (- ?x918 ?x921) ?x926) l_1_2_1) ?x923) ?x2704) l_1_2_21)))
 (let ((?x1461 (- (+ (+ ?x2701 ?x2702) ?x1463) (* l_1_2_28 (- _a_0_ (* 5.0 _a_1_))))))
 (let ((?x2479 (- (- (+ (+ (+ (- ?x1461 l_1_2_31) ?x2152) ?x836) ?x838) ?x1393) (* (* 2.0 l_1_2_45) l_1_2_48))))
 (let ((?x2195 (- (- (- ?x2479 l_1_2_5) (* l_1_2_6 (- _a_0_ (* 5.0 _a_1_)))) l_1_2_7)))
 (= (+ ?x2195 3.0) 0.0)))))))))))))))))))))
(assert
 (let ((?x2023 (* 20.0 l_1_2_26)))
 (let ((?x2427 (* _a_2_ l_1_2_6)))
 (let ((?x1859 (* _a_2_ l_1_2_28)))
 (let ((?x1860 (- (- (- (* (* (* (- 2.0) _a_1_) _a_2_) l_1_2_19) ?x1859) ?x2427) l_1_2_2)))
 (let ((?x393 (- (- (+ ?x1860 ?x2023) (* l_1_2_27 (- _a_1_ (* 10.0 _a_2_)))) (* l_1_2_32 (- _a_1_ (* 10.0 _a_2_))))))
 (= (- ?x393 l_1_2_39) 0.0)))))))
(assert
 (let ((?x1710 (* 100.0 l_1_2_9)))
 (let ((?x2773 (* 10.0 l_1_2_30)))
 (let ((?x2771 (* 10.0 l_1_2_29)))
 (let ((?x1159 (+ (* (* 2.0 _a_0_) _a_3_) (* (* 2.0 _a_1_) _a_5_))))
 (let ((?x2886 (* 100.0 l_1_2_13)))
 (let ((?x2663 (* _a_3_ l_1_2_8)))
 (let ((?x2670 (* _a_3_ l_1_2_36)))
 (let ((?x2924 (* _a_3_ l_1_2_3)))
 (let ((?x2921 (* _a_3_ l_1_2_15)))
 (let ((?x2926 (* _a_3_ l_1_2_12)))
 (let ((?x2920 (+ (* (* 10.0 _a_1_) l_1_2_20) (* (* 10.0 _a_1_) l_1_2_42))))
 (let ((?x946 (+ (- (- (- (- (- ?x2920 ?x2926) ?x2921) ?x2924) ?x2670) ?x2663) (* (* 10.0 _a_5_) l_1_2_27))))
 (let ((?x1455 (- (- (+ ?x946 (* (* 10.0 _a_5_) l_1_2_32)) ?x2886) (* l_1_2_19 ?x1159))))
 (let ((?x2788 (+ (+ (- ?x1455 (* l_1_2_28 (+ (* (- 5.0) _a_3_) _a_5_))) ?x2771) ?x2773)))
 (let ((?x2801 (- (- ?x2788 (* (* 2.0 l_1_2_46) l_1_2_48)) (* (* 2.0 l_1_2_47) l_1_2_49))))
 (= (- (- ?x2801 (* l_1_2_6 (+ (* (- 5.0) _a_3_) _a_5_))) ?x1710) 0.0)))))))))))))))))
(assert
 (let ((?x1141 (* l_1_2_47 l_1_2_47)))
 (let ((?x1142 (* l_1_2_46 l_1_2_46)))
 (let ((?x831 (* 100.0 l_1_2_41)))
 (let ((?x1726 (* 5.0 l_1_2_30)))
 (let ((?x1725 (* 5.0 l_1_2_29)))
 (let ((?x2349 (* _a_4_ l_1_2_8)))
 (let ((?x2351 (* _a_4_ l_1_2_36)))
 (let ((?x1113 (* _a_4_ l_1_2_3)))
 (let ((?x2735 (+ (- (* (- _a_4_) l_1_2_12) (* _a_4_ l_1_2_15)) (* (* 5.0 _a_4_) l_1_2_28))))
 (let ((?x1598 (- (+ (- (- ?x2735 ?x1113) ?x2351) (* (* 5.0 _a_4_) l_1_2_6)) ?x2349)))
 (let ((?x2851 (- (- (- (- ?x1598 l_1_2_11) l_1_2_14) l_1_2_16) (* l_1_2_19 (+ (* (* 2.0 _a_0_) _a_4_) (* _a_5_ _a_5_))))))
 (let ((?x1727 (+ (- (- ?x2851 (* l_1_2_20 (- _a_0_ (* 10.0 _a_5_)))) l_1_2_23) ?x1725)))
 (let ((?x1139 (- (- (- (+ ?x1727 ?x1726) l_1_2_35) ?x831) (* l_1_2_42 (- _a_0_ (* 10.0 _a_5_))))))
 (= (- (- ?x1139 ?x1142) ?x1141) 0.0)))))))))))))))
(assert
 (let ((?x1591 (* 10.0 l_1_2_9)))
 (let ((?x705 (+ (* (* 2.0 _a_1_) _a_3_) (* (* 2.0 _a_2_) _a_5_))))
 (let ((?x1012 (* 10.0 l_1_2_13)))
 (let ((?x1138 (* _a_3_ l_1_2_6)))
 (let ((?x337 (* _a_3_ l_1_2_28)))
 (let ((?x2510 (+ (* (* 10.0 _a_2_) l_1_2_20) (* (* 10.0 _a_2_) l_1_2_42))))
 (let ((?x1587 (- (- (+ (- (- ?x2510 ?x337) ?x1138) ?x1012) (* l_1_2_19 ?x705)) (* l_1_2_27 (+ (* (- 10.0) _a_3_) _a_5_)))))
 (= (+ (- ?x1587 (* l_1_2_32 (+ (* (- 10.0) _a_3_) _a_5_))) ?x1591) 0.0)))))))))
(assert
 (let ((?x1591 (* 10.0 l_1_2_9)))
 (let ((?x292 (+ (* (* 2.0 _a_1_) _a_4_) (* (* 2.0 _a_3_) _a_5_))))
 (let ((?x1012 (* 10.0 l_1_2_13)))
 (let ((?x1212 (* _a_4_ l_1_2_6)))
 (let ((?x2201 (+ (- (* (* 10.0 _a_4_) l_1_2_27) (* _a_4_ l_1_2_28)) (* (* 10.0 _a_4_) l_1_2_32))))
 (let ((?x2382 (- (- (+ (- ?x2201 ?x1212) ?x1012) (* l_1_2_19 ?x292)) (* l_1_2_20 (- _a_1_ (* 10.0 _a_3_))))))
 (let ((?x276 (- (- (- ?x2382 l_1_2_29) l_1_2_30) (* l_1_2_42 (- _a_1_ (* 10.0 _a_3_))))))
 (= (+ ?x276 ?x1591) 0.0)))))))))
(assert
 (let ((?x625 (* _a_4_ l_1_2_32)))
 (let ((?x1927 (* _a_4_ l_1_2_27)))
 (let ((?x2022 (- (- (- (* (- _a_2_) l_1_2_20) (* _a_2_ l_1_2_42)) ?x1927) ?x625)))
 (let ((?x2932 (- (- ?x2022 l_1_2_13) (* l_1_2_19 (+ (* (* 2.0 _a_2_) _a_4_) (* _a_3_ _a_3_))))))
 (= (- ?x2932 l_1_2_9) 0.0))))))
(assert
 (let ((?x2783 (- (- (* (- _a_2_) l_1_2_27) (* _a_2_ l_1_2_32)) (* (* l_1_2_19 _a_2_) _a_2_))))
 (= (- ?x2783 l_1_2_26) 0.0)))
(assert
 (let ((?x950 (* _a_3_ l_1_2_32)))
 (let ((?x286 (* _a_3_ l_1_2_27)))
 (= (- (- (* (* (* (- 2.0) _a_2_) _a_3_) l_1_2_19) ?x286) ?x950) 0.0))))
(assert
 (let ((?x1396 (* _a_3_ l_1_2_42)))
 (let ((?x2028 (* _a_3_ l_1_2_20)))
 (= (- (- (* (* (* (- 2.0) _a_3_) _a_4_) l_1_2_19) ?x2028) ?x1396) 0.0))))
(assert
 (let ((?x1405 (- (- (* (- _a_4_) l_1_2_20) (* _a_4_ l_1_2_42)) (* (* l_1_2_19 _a_4_) _a_4_))))
 (= (- ?x1405 l_1_2_41) 0.0)))
(assert
 (let ((?x2365 (* 20.0 l_1_2_41)))
 (let ((?x2364 (- (* (* (* (- 2.0) _a_4_) _a_5_) l_1_2_19) (* l_1_2_20 (+ (* (- 10.0) _a_4_) _a_5_)))))
 (= (- (+ ?x2364 ?x2365) (* l_1_2_42 (+ (* (- 10.0) _a_4_) _a_5_))) 0.0))))
(assert
 (>= l_1_2_1 0.0))
(assert
 (>= l_1_2_2 0.0))
(assert
 (>= l_1_2_3 0.0))
(assert
 (>= l_1_2_4 0.0))
(assert
 (>= l_1_2_5 0.0))
(assert
 (>= l_1_2_6 0.0))
(assert
 (>= l_1_2_7 0.0))
(assert
 (>= l_1_2_8 0.0))
(assert
 (>= l_1_2_9 0.0))
(assert
 (>= l_1_2_10 0.0))
(assert
 (>= l_1_2_11 0.0))
(assert
 (>= l_1_2_12 0.0))
(assert
 (>= l_1_2_13 0.0))
(assert
 (>= l_1_2_14 0.0))
(assert
 (>= l_1_2_15 0.0))
(assert
 (>= l_1_2_16 0.0))
(assert
 (>= l_1_2_17 0.0))
(assert
 (>= l_1_2_18 0.0))
(assert
 (>= l_1_2_19 0.0))
(assert
 (>= l_1_2_20 0.0))
(assert
 (>= l_1_2_21 0.0))
(assert
 (>= l_1_2_22 0.0))
(assert
 (>= l_1_2_23 0.0))
(assert
 (>= l_1_2_24 0.0))
(assert
 (>= l_1_2_25 0.0))
(assert
 (>= l_1_2_26 0.0))
(assert
 (>= l_1_2_27 0.0))
(assert
 (>= l_1_2_28 0.0))
(assert
 (>= l_1_2_29 0.0))
(assert
 (>= l_1_2_30 0.0))
(assert
 (>= l_1_2_31 0.0))
(assert
 (>= l_1_2_32 0.0))
(assert
 (>= l_1_2_33 0.0))
(assert
 (>= l_1_2_34 0.0))
(assert
 (>= l_1_2_35 0.0))
(assert
 (>= l_1_2_36 0.0))
(assert
 (>= l_1_2_37 0.0))
(assert
 (>= l_1_2_38 0.0))
(assert
 (>= l_1_2_39 0.0))
(assert
 (>= l_1_2_40 0.0))
(assert
 (>= l_1_2_41 0.0))
(assert
 (>= l_1_2_42 0.0))
(assert
 (>= l_1_2_43 0.0))
(assert
 (>= l_1_2_44 0.0))
(assert
 (>= l_1_2_45 0.0))
(assert
 (>= l_1_2_47 0.0))
(assert
 (>= l_1_2_50 0.0))
(assert
 (let ((?x1333 (* 5.0 l_1_3_4)))
 (let ((?x1426 (* l_1_3_33 l_1_3_33)))
 (let ((?x1539 (* 25.0 l_1_3_22)))
 (let ((?x1536 (* 5.0 l_1_3_2)))
 (let ((?x1647 (* 5.0 l_1_3_19)))
 (let ((?x1644 (* (/ 11.0 2.0) _a_5_)))
 (let ((?x1733 (* (/ 121.0 4.0) _a_4_)))
 (let ((?x1730 (* (/ 11.0 2.0) _a_3_)))
 (let ((?x1875 (* _a_0_ l_1_3_3)))
 (let ((?x1874 (- (- (* (- _a_0_) l_1_3_17) (* _a_0_ l_1_3_20)) (* (* 5.0 _a_0_) l_1_3_25))))
 (let ((?x1825 (+ (+ (- (- ?x1874 ?x1875) (* (* 5.0 _a_0_) l_1_3_9)) _a_0_) (* 1.0 _a_1_))))
 (let ((?x1646 (- (+ (+ (+ (+ ?x1825 (* 1.0 _a_2_)) ?x1730) ?x1733) ?x1644) l_1_3_16)))
 (let ((?x1472 (- (- (- (- (- ?x1646 ?x1647) ?x1536) l_1_3_21) ?x1539) (* (* l_1_3_24 _a_0_) _a_0_))))
 (= (- (- (- (- ?x1472 l_1_3_31) l_1_3_32) ?x1426) ?x1333) 0.0)))))))))))))))
(assert
 (let ((?x2965 (* 10.0 l_1_3_8)))
 (let ((?x2963 (* 10.0 l_1_3_7)))
 (let ((?x152 (* 10.0 l_1_3_22)))
 (let ((?x156 (* 50.0 l_1_3_15)))
 (let ((?x143 (* 50.0 l_1_3_12)))
 (let ((?x149 (* 10.0 l_1_3_1)))
 (let ((?x1644 (* (/ 11.0 2.0) _a_5_)))
 (let ((?x182 (* (/ 121.0 2.0) _a_4_)))
 (let ((?x287 (* 11.0 _a_3_)))
 (let ((?x703 (* 2.0 _a_2_)))
 (let ((?x396 (* _a_1_ l_1_3_3)))
 (let ((?x394 (* _a_1_ l_1_3_20)))
 (let ((?x424 (* _a_1_ l_1_3_17)))
 (let ((?x421 (- (* (* (* (- 2.0) _a_0_) _a_1_) l_1_3_24) (* (* 10.0 _a_0_) l_1_3_14))))
 (let ((?x397 (- (- (- (- ?x421 (* (* 10.0 _a_0_) l_1_3_23)) ?x424) ?x394) ?x396)))
 (let ((?x157 (- (- (+ (+ (+ (+ (+ ?x397 _a_1_) ?x703) ?x287) ?x182) ?x1644) ?x149) ?x143)))
 (let ((?x146 (- (+ (+ (+ (- ?x157 ?x156) l_1_3_19) l_1_3_2) ?x152) (* l_1_3_25 (+ (- _a_0_) (* 5.0 _a_1_))))))
 (let ((?x2966 (- (- (+ (- ?x146 (* (* 2.0 l_1_3_33) l_1_3_36)) l_1_3_4) ?x2963) ?x2965)))
 (= (- ?x2966 (* l_1_3_9 (+ (- _a_0_) (* 5.0 _a_1_)))) 0.0))))))))))))))))))))
(assert
 (let ((?x3093 (* l_1_3_38 l_1_3_38)))
 (let ((?x3091 (* l_1_3_37 l_1_3_37)))
 (let ((?x3089 (* l_1_3_36 l_1_3_36)))
 (let ((?x3087 (* 100.0 l_1_3_28)))
 (let ((?x3076 (* 15.0 l_1_3_15)))
 (let ((?x3071 (* 15.0 l_1_3_12)))
 (let ((?x1733 (* (/ 121.0 4.0) _a_4_)))
 (let ((?x1730 (* (/ 11.0 2.0) _a_3_)))
 (let ((?x3065 (* _a_2_ l_1_3_3)))
 (let ((?x3067 (+ (- (- (* (- _a_2_) l_1_3_17) (* _a_2_ l_1_3_20)) ?x3065) _a_2_)))
 (let ((?x3075 (- (+ (+ (+ (+ ?x3067 ?x1730) ?x1733) l_1_3_1) ?x3071) (* l_1_3_14 (+ (- _a_0_) (* 10.0 _a_1_))))))
 (let ((?x3080 (- (- (+ ?x3075 ?x3076) l_1_3_22) (* l_1_3_23 (+ (- _a_0_) (* 10.0 _a_1_))))))
 (let ((?x3082 (- ?x3080 (* l_1_3_24 (+ (* (* 2.0 _a_0_) _a_2_) (* _a_1_ _a_1_))))))
 (let ((?x3090 (- (- (- ?x3082 (* l_1_3_25 (+ (- _a_1_) (* 5.0 _a_2_)))) ?x3087) ?x3089)))
 (let ((?x3098 (- (+ (+ (- (- ?x3090 ?x3091) ?x3093) l_1_3_7) l_1_3_8) (* l_1_3_9 (+ (- _a_1_) (* 5.0 _a_2_))))))
 (= ?x3098 0.0)))))))))))))))))
(assert
 (let ((?x3256 (* 100.0 l_1_3_6)))
 (let ((?x3254 (* 100.0 l_1_3_5)))
 (let ((?x3246 (* 10.0 l_1_3_30)))
 (let ((?x1159 (+ (* (* 2.0 _a_0_) _a_3_) (* (* 2.0 _a_1_) _a_5_))))
 (let ((?x3238 (* 10.0 l_1_3_10)))
 (let ((?x3232 (* 11.0 _a_4_)))
 (let ((?x3229 (* _a_3_ l_1_3_3)))
 (let ((?x3227 (* _a_3_ l_1_3_20)))
 (let ((?x3225 (* _a_3_ l_1_3_17)))
 (let ((?x3224 (- (* (* (- 10.0) _a_1_) l_1_3_26) (* (* 10.0 _a_1_) l_1_3_29))))
 (let ((?x3235 (- (+ (+ (- (- (- ?x3224 ?x3225) ?x3227) ?x3229) _a_3_) ?x3232) (* (* 10.0 _a_5_) l_1_3_14))))
 (let ((?x3241 (- (+ (- ?x3235 (* (* 10.0 _a_5_) l_1_3_23)) ?x3238) (* l_1_3_24 ?x1159))))
 (let ((?x3250 (- (+ (- ?x3241 (* l_1_3_25 (- (* 5.0 _a_3_) _a_5_))) ?x3246) (* (* 2.0 l_1_3_34) l_1_3_36))))
 (let ((?x3259 (- (- (- (- ?x3250 (* (* 2.0 l_1_3_35) l_1_3_37)) ?x3254) ?x3256) (* l_1_3_9 (- (* 5.0 _a_3_) _a_5_)))))
 (= ?x3259 0.0))))))))))))))))
(assert
 (let ((?x3404 (* 50.0 l_1_3_30)))
 (let ((?x3402 (* 10.0 l_1_3_27)))
 (let ((?x3400 (* 10.0 l_1_3_18)))
 (let ((?x3398 (* 10.0 l_1_3_13)))
 (let ((?x3396 (* 50.0 l_1_3_10)))
 (let ((?x3391 (* _a_5_ l_1_3_3)))
 (let ((?x3387 (* _a_5_ l_1_3_20)))
 (let ((?x3385 (* _a_5_ l_1_3_17)))
 (let ((?x3232 (* 11.0 _a_4_)))
 (let ((?x3379 (- (* (* (* (- 2.0) _a_0_) _a_5_) l_1_3_24) (* (* 10.0 _a_0_) l_1_3_26))))
 (let ((?x3384 (+ (+ (- ?x3379 (* (* 10.0 _a_0_) l_1_3_29)) (* 1.0 _a_3_)) ?x3232)))
 (let ((?x3392 (- (- (- (- ?x3384 ?x3385) ?x3387) (* (* 5.0 _a_5_) l_1_3_25)) ?x3391)))
 (let ((?x3399 (- (- (+ (- ?x3392 (* (* 5.0 _a_5_) l_1_3_9)) _a_5_) ?x3396) ?x3398)))
 (let ((?x3407 (- (- (- (- ?x3399 ?x3400) ?x3402) ?x3404) (* (* 2.0 l_1_3_33) l_1_3_34))))
 (= ?x3407 0.0))))))))))))))))
(assert
 (let ((?x3499 (* l_1_3_35 l_1_3_35)))
 (let ((?x3497 (* l_1_3_34 l_1_3_34)))
 (let ((?x3495 (* 5.0 l_1_3_30)))
 (let ((?x3483 (* 100.0 l_1_3_11)))
 (let ((?x3481 (* 5.0 l_1_3_10)))
 (let ((?x3476 (* _a_4_ l_1_3_3)))
 (let ((?x3475 (- (- (* (- _a_4_) l_1_3_17) (* _a_4_ l_1_3_20)) (* (* 5.0 _a_4_) l_1_3_25))))
 (let ((?x3482 (+ (+ (- (- ?x3475 ?x3476) (* (* 5.0 _a_4_) l_1_3_9)) _a_4_) ?x3481)))
 (let ((?x3488 (- (+ (+ (- ?x3482 ?x3483) l_1_3_13) l_1_3_18) (* l_1_3_24 (+ (* (* 2.0 _a_0_) _a_4_) (* _a_5_ _a_5_))))))
 (let ((?x3492 (+ (- ?x3488 (* l_1_3_26 (+ (- _a_0_) (* 10.0 _a_5_)))) l_1_3_27)))
 (let ((?x3498 (- (+ (- ?x3492 (* l_1_3_29 (+ (- _a_0_) (* 10.0 _a_5_)))) ?x3495) ?x3497)))
 (= (- ?x3498 ?x3499) 0.0)))))))))))))
(assert
 (let ((?x3607 (* 10.0 l_1_3_6)))
 (let ((?x3605 (* 10.0 l_1_3_5)))
 (let ((?x705 (+ (* (* 2.0 _a_1_) _a_3_) (* (* 2.0 _a_2_) _a_5_))))
 (let ((?x3361 (* _a_3_ l_1_3_9)))
 (let ((?x3320 (* _a_3_ l_1_3_25)))
 (let ((?x3595 (- (* (* (- 10.0) _a_2_) l_1_3_26) (* (* 10.0 _a_2_) l_1_3_29))))
 (let ((?x3600 (- (+ (+ ?x3595 ?x3320) ?x3361) (* l_1_3_14 (- (* 10.0 _a_3_) _a_5_)))))
 (let ((?x3604 (- (- ?x3600 (* l_1_3_23 (- (* 10.0 _a_3_) _a_5_))) (* l_1_3_24 ?x705))))
 (= (+ (+ ?x3604 ?x3605) ?x3607) 0.0))))))))))
(assert
 (let ((?x3607 (* 10.0 l_1_3_6)))
 (let ((?x3605 (* 10.0 l_1_3_5)))
 (let ((?x292 (+ (* (* 2.0 _a_1_) _a_4_) (* (* 2.0 _a_3_) _a_5_))))
 (let ((?x3516 (* _a_4_ l_1_3_9)))
 (let ((?x3507 (* _a_4_ l_1_3_25)))
 (let ((?x3683 (- (* (* (- 10.0) _a_4_) l_1_3_14) (* (* 10.0 _a_4_) l_1_3_23))))
 (let ((?x3691 (- (- (- (+ (+ ?x3683 ?x3507) ?x3516) l_1_3_10) (* l_1_3_24 ?x292)) (* l_1_3_26 (+ (- _a_1_) (* 10.0 _a_3_))))))
 (let ((?x3694 (- (- ?x3691 (* l_1_3_29 (+ (- _a_1_) (* 10.0 _a_3_)))) l_1_3_30)))
 (= (+ (+ ?x3694 ?x3605) ?x3607) 0.0))))))))))
(assert
 (let ((?x3700 (* _a_4_ l_1_3_23)))
 (let ((?x3698 (* _a_4_ l_1_3_14)))
 (let ((?x3784 (- (+ (+ (+ (* _a_2_ l_1_3_26) (* _a_2_ l_1_3_29)) ?x3698) ?x3700) (* l_1_3_24 (+ (* (* 2.0 _a_2_) _a_4_) (* _a_3_ _a_3_))))))
 (= (- (- ?x3784 l_1_3_5) l_1_3_6) 0.0)))))
(assert
 (let ((?x3210 (* _a_2_ l_1_3_9)))
 (let ((?x3178 (* _a_2_ l_1_3_25)))
 (let ((?x3821 (- (+ (+ (* (* (* (- 2.0) _a_1_) _a_2_) l_1_3_24) ?x3178) ?x3210) l_1_3_12)))
 (let ((?x3825 (- (- ?x3821 (* l_1_3_14 (+ (- _a_1_) (* 10.0 _a_2_)))) l_1_3_15)))
 (let ((?x3829 (+ (- ?x3825 (* l_1_3_23 (+ (- _a_1_) (* 10.0 _a_2_)))) (* 20.0 l_1_3_28))))
 (= ?x3829 0.0)))))))
(assert
 (let ((?x3881 (* 20.0 l_1_3_11)))
 (let ((?x3885 (- (+ (* (* (* (- 2.0) _a_4_) _a_5_) l_1_3_24) ?x3881) (* l_1_3_26 (- (* 10.0 _a_4_) _a_5_)))))
 (= (- ?x3885 (* l_1_3_29 (- (* 10.0 _a_4_) _a_5_))) 0.0))))
(assert
 (let ((?x3918 (- (- (+ (* _a_4_ l_1_3_26) (* _a_4_ l_1_3_29)) l_1_3_11) (* (* l_1_3_24 _a_4_) _a_4_))))
 (= ?x3918 0.0)))
(assert
 (let ((?x3866 (* _a_2_ l_1_3_23)))
 (let ((?x3845 (* _a_2_ l_1_3_14)))
 (let ((?x3929 (+ ?x3845 ?x3866)))
 (= (- (- ?x3929 (* (* l_1_3_24 _a_2_) _a_2_)) l_1_3_28) 0.0)))))
(assert
 (let ((?x3644 (* _a_3_ l_1_3_23)))
 (let ((?x3625 (* _a_3_ l_1_3_14)))
 (= (+ (+ (* (* (* (- 2.0) _a_2_) _a_3_) l_1_3_24) ?x3625) ?x3644) 0.0))))
(assert
 (let ((?x3759 (* _a_3_ l_1_3_29)))
 (let ((?x3740 (* _a_3_ l_1_3_26)))
 (= (+ (+ (* (* (* (- 2.0) _a_3_) _a_4_) l_1_3_24) ?x3740) ?x3759) 0.0))))
(assert
 (>= l_1_3_1 0.0))
(assert
 (>= l_1_3_2 0.0))
(assert
 (>= l_1_3_3 0.0))
(assert
 (>= l_1_3_4 0.0))
(assert
 (>= l_1_3_5 0.0))
(assert
 (>= l_1_3_6 0.0))
(assert
 (>= l_1_3_7 0.0))
(assert
 (>= l_1_3_8 0.0))
(assert
 (>= l_1_3_9 0.0))
(assert
 (>= l_1_3_10 0.0))
(assert
 (>= l_1_3_11 0.0))
(assert
 (>= l_1_3_12 0.0))
(assert
 (>= l_1_3_13 0.0))
(assert
 (>= l_1_3_14 0.0))
(assert
 (>= l_1_3_15 0.0))
(assert
 (>= l_1_3_16 0.0))
(assert
 (>= l_1_3_17 0.0))
(assert
 (>= l_1_3_18 0.0))
(assert
 (>= l_1_3_19 0.0))
(assert
 (>= l_1_3_20 0.0))
(assert
 (>= l_1_3_21 0.0))
(assert
 (>= l_1_3_22 0.0))
(assert
 (>= l_1_3_23 0.0))
(assert
 (>= l_1_3_24 0.0))
(assert
 (>= l_1_3_25 0.0))
(assert
 (>= l_1_3_26 0.0))
(assert
 (>= l_1_3_27 0.0))
(assert
 (>= l_1_3_28 0.0))
(assert
 (>= l_1_3_29 0.0))
(assert
 (>= l_1_3_30 0.0))
(assert
 (>= l_1_3_31 0.0))
(assert
 (>= l_1_3_32 0.0))
(assert
 (>= l_1_3_33 0.0))
(assert
 (>= l_1_3_35 0.0))
(assert
 (>= l_1_3_38 0.0))
(check-sat)
(get-model)